10	36
0	1	72
0	2	27
0	3	18
0	5	16
0	6	94
0	7	45
0	8	19
0	9	91
1	2	99
1	3	56
1	4	34
1	5	88
1	7	33
1	8	17
1	9	60
2	3	66
2	5	50
2	6	82
2	7	84
2	8	19
3	4	77
3	5	91
3	7	90
3	9	38
4	5	94
4	6	65
4	8	95
5	6	23
5	7	13
5	9	100
6	7	69
6	8	71
6	9	10
7	8	68
7	9	93
8	9	34
